
******************************************************************************
This program contains Ipopt, a library for large-scale nonlinear optimization.
 Ipopt is released as open source code under the Eclipse Public License (EPL).
         For more information visit http://projects.coin-or.org/Ipopt

This version of Ipopt was compiled from source code available at
    https://github.com/IDAES/Ipopt as part of the Institute for the Design of
    Advanced Energy Systems Process Systems Engineering Framework (IDAES PSE
    Framework) Copyright (c) 2018-2019. See https://github.com/IDAES/idaes-pse.

This version of Ipopt was compiled using HSL, a collection of Fortran codes
    for large-scale scientific computation.  All technical papers, sales and
    publicity material resulting from use of the HSL codes within IPOPT must
    contain the following acknowledgement:
        HSL, a collection of Fortran codes for large-scale scientific
        computation. See http://www.hsl.rl.ac.uk.
******************************************************************************

This is Ipopt version 3.13.2, running with linear solver ma27.

Number of nonzeros in equality constraint Jacobian...:     1840
Number of nonzeros in inequality constraint Jacobian.:        0
Number of nonzeros in Lagrangian Hessian.............:     3296

Total number of variables............................:      640
                     variables with only lower bounds:      128
                variables with lower and upper bounds:      448
                     variables with only upper bounds:        0
Total number of equality constraints.................:      632
Total number of inequality constraints...............:        0
        inequality constraints with only lower bounds:        0
   inequality constraints with lower and upper bounds:        0
        inequality constraints with only upper bounds:        0

iter    objective    inf_pr   inf_du lg(mu)  ||d||  lg(rg) alpha_du alpha_pr  ls
   0  0.0000000e+00 6.32e+00 7.11e-15  -1.0 0.00e+00    -  0.00e+00 0.00e+00   0
   1  1.1401017e+01 8.11e-01 4.21e+03  -1.0 4.41e+04    -  5.70e-01 9.90e-01h  1
   2  1.1822642e+01 1.72e+00 6.20e+01  -1.0 5.05e+03    -  9.30e-01 9.90e-01h  1
   3  1.1745505e+01 2.84e-01 5.92e+03  -1.0 6.37e+02    -  9.31e-01 9.90e-01h  1
   4  1.1317578e+01 7.13e-03 3.82e+04  -1.0 3.92e+03    -  9.86e-01 9.90e-01H  1
   5  1.1216232e+01 2.46e-04 9.14e+02  -1.0 2.00e+03    -  9.90e-01 9.90e-01H  1
   6  1.1171504e+01 9.48e-03 5.75e+06  -3.8 3.78e+02    -  9.62e-01 1.00e+00h  1
In iteration 6, 32 Slacks too small, adjusting variable bounds
   7  1.1002537e+01 1.04e-01 6.44e+10  -3.8 1.83e+03    -  9.35e-01 1.00e+00h  1
   8  1.0985718e+01 4.04e-01 5.58e+07  -3.8 6.45e+02    -  1.00e+00 1.00e+00h  1
   9  1.0981979e+01 6.32e-02 7.12e-03  -3.8 6.30e+02    -  1.00e+00 1.00e+00h  1
iter    objective    inf_pr   inf_du lg(mu)  ||d||  lg(rg) alpha_du alpha_pr  ls
  10  1.0982017e+01 6.29e-02 8.33e-03  -3.8 3.45e+01  -4.0 1.00e+00 3.12e-02h  6
  11  1.0985274e+01 1.27e-05 5.48e-02  -3.8 6.32e+02    -  1.00e+00 1.00e+00h  1
  12  1.0985119e+01 3.32e-04 8.89e+06  -8.6 6.43e+01    -  9.92e-01 1.00e+00h  1
  13  1.0985128e+01 7.26e-05 3.76e-04  -8.6 1.87e+00    -  1.00e+00 1.00e+00h  1
  14  1.0985124e+01 4.02e-05 1.48e-04  -8.6 6.64e-01    -  1.00e+00 1.00e+00h  1
  15  1.0985123e+01 1.88e-05 5.05e-05  -8.6 3.68e-01    -  1.00e+00 1.00e+00h  1
  16  1.0985124e+01 5.83e-06 1.23e-05  -8.6 1.63e-01    -  1.00e+00 1.00e+00h  1
  17  1.0985124e+01 6.81e-07 1.24e-06  -8.6 4.46e-02    -  1.00e+00 1.00e+00h  1
  18  1.0985124e+01 9.13e-09 1.59e-08  -8.6 4.45e-03    -  1.00e+00 1.00e+00h  1

Number of Iterations....: 18

                                   (scaled)                 (unscaled)
Objective...............:   1.0985124370807563e+01    1.0985124370807563e+01
Dual infeasibility......:   1.5917635353535313e-08    1.5917635353535313e-08
Constraint violation....:   9.1306731064833002e-09    9.1306731064833002e-09
Complementarity.........:   2.5059035596800622e-09    2.5059035596800622e-09
Overall NLP error.......:   9.1306731064833002e-09    1.5917635353535313e-08


Number of objective function evaluations             = 27
Number of objective gradient evaluations             = 19
Number of equality constraint evaluations            = 27
Number of inequality constraint evaluations          = 0
Number of equality constraint Jacobian evaluations   = 19
Number of inequality constraint Jacobian evaluations = 0
Number of Lagrangian Hessian evaluations             = 18
Total CPU secs in IPOPT (w/o function evaluations)   =      0.058
Total CPU secs in NLP function evaluations           =      0.635

EXIT: Optimal Solution Found.
